solution status: optimal solution found
objective value:                     145567.056876772
d11(0,0)                                            1 	(obj:0)
d11(1,1)                                            1 	(obj:0)
d11(2,3)                                            1 	(obj:0)
d11(2,5)                                            1 	(obj:0)
d11(3,7)                                            1 	(obj:0)
d11(3,9)                                            1 	(obj:0)
d11(3,10)                                           1 	(obj:0)
d11(3,11)                                           1 	(obj:0)
d11(3,13)                                           1 	(obj:0)
d11(3,14)                                           1 	(obj:0)
d11(4,15)                                           1 	(obj:0)
d11(4,16)                                           1 	(obj:0)
d11(4,17)                                           1 	(obj:0)
d11(4,19)                                           1 	(obj:0)
d11(4,20)                                           1 	(obj:0)
d11(4,21)                                           1 	(obj:0)
d11(4,22)                                           1 	(obj:0)
d11(4,23)                                           1 	(obj:0)
d11(4,24)                                           1 	(obj:0)
d11(4,25)                                           1 	(obj:0)
d11(4,26)                                           1 	(obj:0)
d11(4,27)                                           1 	(obj:0)
d11(4,28)                                           1 	(obj:0)
d11(4,29)                                           1 	(obj:0)
d12(1,2)                                            1 	(obj:0)
d12(2,4)                                            1 	(obj:0)
d12(2,6)                                            1 	(obj:0)
d21(3,7)                                            1 	(obj:0)
d21(4,15)                                           1 	(obj:0)
d21(4,16)                                           1 	(obj:0)
d21(4,17)                                           1 	(obj:0)
d21(4,19)                                           1 	(obj:0)
d21(4,23)                                           1 	(obj:0)
d21(4,24)                                           1 	(obj:0)
d21(4,25)                                           1 	(obj:0)
d21(4,27)                                           1 	(obj:0)
STE(1,1)                             13040.9999999999 	(obj:0)
STE(0,0)                                        14175 	(obj:0)
STE(1,2)                             14357.2140858764 	(obj:0)
STE(2,3)                              11017.050226752 	(obj:0)
STE(2,4)                             12431.2495988871 	(obj:0)
STE(2,5)                             12333.2643126284 	(obj:0)
STE(2,6)                             13747.4636847635 	(obj:0)
STE(3,7)                             8224.80032786314 	(obj:0)
STE(3,8)                             9883.05022675195 	(obj:0)
STE(3,9)                             9638.99969999823 	(obj:0)
STE(3,10)                            11297.2495988871 	(obj:0)
STE(3,11)                            9541.01441373959 	(obj:0)
STE(3,12)                            11199.2643126284 	(obj:0)
STE(3,13)                            10955.2137858747 	(obj:0)
STE(3,14)                            12613.4636847635 	(obj:0)
STE(4,15)                            5432.55042897429 	(obj:0)
STE(4,16)                            7090.80032786314 	(obj:0)
STE(4,17)                            7090.80032786311 	(obj:0)
STE(4,18)                            8749.05022675195 	(obj:0)
STE(4,19)                            6846.74980110939 	(obj:0)
STE(4,20)                            8504.99969999823 	(obj:0)
STE(4,21)                            8504.99969999821 	(obj:0)
STE(4,22)                            10163.2495988871 	(obj:0)
STE(4,23)                            6748.76451485074 	(obj:0)
STE(4,24)                            8407.01441373959 	(obj:0)
STE(4,25)                            8407.01441373956 	(obj:0)
STE(4,26)                            10065.2643126284 	(obj:0)
STE(4,27)                            8162.96388698586 	(obj:0)
STE(4,28)                            9821.21378587471 	(obj:0)
STE(4,29)                            9821.21378587468 	(obj:0)
STE(4,30)                            11479.4636847635 	(obj:0)
y1(3,11)                             1492.42490899994 	(obj:0)
y1(3,13)                             1492.42490899994 	(obj:0)
y1(4,15)                             1492.42490899996 	(obj:0)
y1(4,17)                             1492.42490899996 	(obj:0)
y1(4,19)                             1492.42490899996 	(obj:0)
y1(4,21)                             1492.42490899996 	(obj:0)
y1(4,23)                             1492.42490899996 	(obj:0)
y1(4,25)                             1492.42490899996 	(obj:0)
y1(4,27)                             1492.42490899996 	(obj:0)
y1(4,29)                             1492.42490899996 	(obj:0)
WB(1)                                 592.50702913632 	(obj:0)
AVE(1)                               3265.91696791192 	(obj:0)
WB(2)                                3332.74178563731 	(obj:0)
AVE(2)                               3332.74178563731 	(obj:0)
AVE(3)                               3444.11697932125 	(obj:0)
AVE(4)                               3399.56511093778 	(obj:0)
WG(1)                                 2673.4099387756 	(obj:10)
WG(3)                                3444.11697932115 	(obj:10)
WG(4)                                3399.56511093778 	(obj:10)
BG(2)                                3490.71075094207 	(obj:10)
BG(3)                                752.175519658414 	(obj:10)
BG(4)                                796.727388041812 	(obj:10)
y1(2,3)                              800.954795923195 	(obj:0)
y1(2,5)                              800.954795923214 	(obj:0)
y1(3,7)                              1492.42490899994 	(obj:0)
y1(3,9)                              1492.42490899994 	(obj:0)
y2(1,2)                              1385.48851144886 	(obj:0)
y2(2,4)                              551.841683039058 	(obj:0)
y2(2,6)                              551.841683039059 	(obj:0)
